c File: instances/18_0.10_1.col
c
c Description: Random graph of size 18 vertices and P(0.1) of edges between any two vertices.
p col 18 153
e 2 6
e 3 5
e 3 13
e 3 14
e 3 17
e 4 15
e 5 9
e 5 18
e 6 8
e 6 12
e 9 11
e 9 18
e 10 15
e 14 15